713,613
681,856
512,529
694,380
641,486
681,586
718,520
710,410
744,343
830,112
742,21
727,110
786,261
694,380
334,229
282,277
261,406
512,529
681,916
868,501
850,529
814,474
786,261
753,354
727,110
847,-107
342,67
477,6
721,326
744,343
733,478
342,67
342,160
